10	6	4.1
2 5 1 1 3 3 4 6 5 8 6 8 5 1 5 3 7 4 9 5 6 6 9
2 5 1 4 2 4 3 1 5 3 6 5 3 1 4 3 6 6 4
2 2 1 5 4 6 3 3 6 5 1 6 4
2 5 1 5 2 1 3 6 4 9 6 8 4 2 1 3 8 4 9 6 1
2 3 2 1 5 3 6 2 2 2 2 3 1
2 5 1 6 2 1 3 4 5 5 6 1 1 3 5
2 6 1 3 2 2 3 1 4 3 5 1 6 5 6 1 4 2 8 3 1 4 4 5 4 6 4
2 5 1 1 2 1 3 5 4 5 5 1 5 2 5 3 7 4 8 5 5 6 8
2 5 1 4 2 6 4 7 5 6 6 5 4 1 2 2 4 4 4 5 5
2 6 1 9 2 3 3 3 4 7 5 4 6 5 2 4 7 6 8
